objective value:                                   -3
t_n_12                                              1 	(obj:-1)
t_n_245                                             1 	(obj:-1)
t_n_1715                                            1 	(obj:-1)
